141459
94,53,70,35,84,47,72,32,1,71,81,99,50,62,34,74,102,3,14,60,46,49,8,7,96,54,28,29,4,51,30,64,97,41,18,67,98,80,85,76,45,44,24,61,21,20,16,89,63,15,19,55,39,5,68,87,12,105,91,22,11,92,88,79,56,82,33,25,13,73,101,23,75,57,27,26,9,58,65,43,86,0,42,78,90,59,95,77,93,2,69,17,31,6,52,83,38,48,36,100,104,37,103,10,40,66
